certificates/rado_a5_c266_N52.cnf
c Rad2 upper bound instance: x1 + 5*x2 - x3 = 266, interval [1,52]
p cnf 52 470
1 7 52 0
-1 -7 -52 0
2 8 52 0
-2 -8 -52 0
3 9 52 0
-3 -9 -52 0
4 10 52 0
-4 -10 -52 0
5 11 52 0
-5 -11 -52 0
1 12 51 0
-1 -12 -51 0
6 12 52 0
-6 -12 -52 0
2 13 51 0
-2 -13 -51 0
7 13 52 0
-7 -13 -52 0
3 14 51 0
-3 -14 -51 0
8 14 52 0
-8 -14 -52 0
4 15 51 0
-4 -15 -51 0
9 15 52 0
-9 -15 -52 0
5 16 51 0
-5 -16 -51 0
10 16 52 0
-10 -16 -52 0
1 17 50 0
-1 -17 -50 0
6 17 51 0
-6 -17 -51 0
11 17 52 0
-11 -17 -52 0
2 18 50 0
-2 -18 -50 0
7 18 51 0
-7 -18 -51 0
12 18 52 0
-12 -18 -52 0
3 19 50 0
-3 -19 -50 0
8 19 51 0
-8 -19 -51 0
13 19 52 0
-13 -19 -52 0
4 20 50 0
-4 -20 -50 0
9 20 51 0
-9 -20 -51 0
14 20 52 0
-14 -20 -52 0
5 21 50 0
-5 -21 -50 0
10 21 51 0
-10 -21 -51 0
15 21 52 0
-15 -21 -52 0
1 22 49 0
-1 -22 -49 0
6 22 50 0
-6 -22 -50 0
11 22 51 0
-11 -22 -51 0
16 22 52 0
-16 -22 -52 0
2 23 49 0
-2 -23 -49 0
7 23 50 0
-7 -23 -50 0
12 23 51 0
-12 -23 -51 0
17 23 52 0
-17 -23 -52 0
3 24 49 0
-3 -24 -49 0
8 24 50 0
-8 -24 -50 0
13 24 51 0
-13 -24 -51 0
18 24 52 0
-18 -24 -52 0
4 25 49 0
-4 -25 -49 0
9 25 50 0
-9 -25 -50 0
14 25 51 0
-14 -25 -51 0
19 25 52 0
-19 -25 -52 0
5 26 49 0
-5 -26 -49 0
10 26 50 0
-10 -26 -50 0
15 26 51 0
-15 -26 -51 0
20 26 52 0
-20 -26 -52 0
1 27 48 0
-1 -27 -48 0
6 27 49 0
-6 -27 -49 0
11 27 50 0
-11 -27 -50 0
16 27 51 0
-16 -27 -51 0
21 27 52 0
-21 -27 -52 0
2 28 48 0
-2 -28 -48 0
7 28 49 0
-7 -28 -49 0
12 28 50 0
-12 -28 -50 0
17 28 51 0
-17 -28 -51 0
22 28 52 0
-22 -28 -52 0
3 29 48 0
-3 -29 -48 0
8 29 49 0
-8 -29 -49 0
13 29 50 0
-13 -29 -50 0
18 29 51 0
-18 -29 -51 0
23 29 52 0
-23 -29 -52 0
4 30 48 0
-4 -30 -48 0
9 30 49 0
-9 -30 -49 0
14 30 50 0
-14 -30 -50 0
19 30 51 0
-19 -30 -51 0
24 30 52 0
-24 -30 -52 0
5 31 48 0
-5 -31 -48 0
10 31 49 0
-10 -31 -49 0
15 31 50 0
-15 -31 -50 0
20 31 51 0
-20 -31 -51 0
25 31 52 0
-25 -31 -52 0
1 32 47 0
-1 -32 -47 0
6 32 48 0
-6 -32 -48 0
11 32 49 0
-11 -32 -49 0
16 32 50 0
-16 -32 -50 0
21 32 51 0
-21 -32 -51 0
26 32 52 0
-26 -32 -52 0
2 33 47 0
-2 -33 -47 0
7 33 48 0
-7 -33 -48 0
12 33 49 0
-12 -33 -49 0
17 33 50 0
-17 -33 -50 0
22 33 51 0
-22 -33 -51 0
27 33 52 0
-27 -33 -52 0
3 34 47 0
-3 -34 -47 0
8 34 48 0
-8 -34 -48 0
13 34 49 0
-13 -34 -49 0
18 34 50 0
-18 -34 -50 0
23 34 51 0
-23 -34 -51 0
28 34 52 0
-28 -34 -52 0
4 35 47 0
-4 -35 -47 0
9 35 48 0
-9 -35 -48 0
14 35 49 0
-14 -35 -49 0
19 35 50 0
-19 -35 -50 0
24 35 51 0
-24 -35 -51 0
29 35 52 0
-29 -35 -52 0
5 36 47 0
-5 -36 -47 0
10 36 48 0
-10 -36 -48 0
15 36 49 0
-15 -36 -49 0
20 36 50 0
-20 -36 -50 0
25 36 51 0
-25 -36 -51 0
30 36 52 0
-30 -36 -52 0
1 37 46 0
-1 -37 -46 0
6 37 47 0
-6 -37 -47 0
11 37 48 0
-11 -37 -48 0
16 37 49 0
-16 -37 -49 0
21 37 50 0
-21 -37 -50 0
26 37 51 0
-26 -37 -51 0
31 37 52 0
-31 -37 -52 0
2 38 46 0
-2 -38 -46 0
7 38 47 0
-7 -38 -47 0
12 38 48 0
-12 -38 -48 0
17 38 49 0
-17 -38 -49 0
22 38 50 0
-22 -38 -50 0
27 38 51 0
-27 -38 -51 0
32 38 52 0
-32 -38 -52 0
3 39 46 0
-3 -39 -46 0
8 39 47 0
-8 -39 -47 0
13 39 48 0
-13 -39 -48 0
18 39 49 0
-18 -39 -49 0
23 39 50 0
-23 -39 -50 0
28 39 51 0
-28 -39 -51 0
33 39 52 0
-33 -39 -52 0
4 40 46 0
-4 -40 -46 0
9 40 47 0
-9 -40 -47 0
14 40 48 0
-14 -40 -48 0
19 40 49 0
-19 -40 -49 0
24 40 50 0
-24 -40 -50 0
29 40 51 0
-29 -40 -51 0
34 40 52 0
-34 -40 -52 0
5 41 46 0
-5 -41 -46 0
10 41 47 0
-10 -41 -47 0
15 41 48 0
-15 -41 -48 0
20 41 49 0
-20 -41 -49 0
25 41 50 0
-25 -41 -50 0
30 41 51 0
-30 -41 -51 0
35 41 52 0
-35 -41 -52 0
1 42 45 0
-1 -42 -45 0
6 42 46 0
-6 -42 -46 0
11 42 47 0
-11 -42 -47 0
16 42 48 0
-16 -42 -48 0
21 42 49 0
-21 -42 -49 0
26 42 50 0
-26 -42 -50 0
31 42 51 0
-31 -42 -51 0
36 42 52 0
-36 -42 -52 0
2 43 45 0
-2 -43 -45 0
7 43 46 0
-7 -43 -46 0
12 43 47 0
-12 -43 -47 0
17 43 48 0
-17 -43 -48 0
22 43 49 0
-22 -43 -49 0
27 43 50 0
-27 -43 -50 0
32 43 51 0
-32 -43 -51 0
37 43 52 0
-37 -43 -52 0
3 44 45 0
-3 -44 -45 0
8 44 46 0
-8 -44 -46 0
13 44 47 0
-13 -44 -47 0
18 44 48 0
-18 -44 -48 0
23 44 49 0
-23 -44 -49 0
28 44 50 0
-28 -44 -50 0
33 44 51 0
-33 -44 -51 0
38 44 52 0
-38 -44 -52 0
4 45 0
-4 -45 0
9 45 46 0
-9 -45 -46 0
14 45 47 0
-14 -45 -47 0
19 45 48 0
-19 -45 -48 0
24 45 49 0
-24 -45 -49 0
29 45 50 0
-29 -45 -50 0
34 45 51 0
-34 -45 -51 0
39 45 52 0
-39 -45 -52 0
5 45 46 0
-5 -45 -46 0
10 46 0
-10 -46 0
15 46 47 0
-15 -46 -47 0
20 46 48 0
-20 -46 -48 0
25 46 49 0
-25 -46 -49 0
30 46 50 0
-30 -46 -50 0
35 46 51 0
-35 -46 -51 0
40 46 52 0
-40 -46 -52 0
1 44 47 0
-1 -44 -47 0
6 45 47 0
-6 -45 -47 0
11 46 47 0
-11 -46 -47 0
16 47 0
-16 -47 0
21 47 48 0
-21 -47 -48 0
26 47 49 0
-26 -47 -49 0
31 47 50 0
-31 -47 -50 0
36 47 51 0
-36 -47 -51 0
41 47 52 0
-41 -47 -52 0
2 44 48 0
-2 -44 -48 0
7 45 48 0
-7 -45 -48 0
12 46 48 0
-12 -46 -48 0
17 47 48 0
-17 -47 -48 0
22 48 0
-22 -48 0
27 48 49 0
-27 -48 -49 0
32 48 50 0
-32 -48 -50 0
37 48 51 0
-37 -48 -51 0
42 48 52 0
-42 -48 -52 0
3 44 49 0
-3 -44 -49 0
8 45 49 0
-8 -45 -49 0
13 46 49 0
-13 -46 -49 0
18 47 49 0
-18 -47 -49 0
23 48 49 0
-23 -48 -49 0
28 49 0
-28 -49 0
33 49 50 0
-33 -49 -50 0
38 49 51 0
-38 -49 -51 0
43 49 52 0
-43 -49 -52 0
4 44 50 0
-4 -44 -50 0
9 45 50 0
-9 -45 -50 0
14 46 50 0
-14 -46 -50 0
19 47 50 0
-19 -47 -50 0
24 48 50 0
-24 -48 -50 0
29 49 50 0
-29 -49 -50 0
34 50 0
-34 -50 0
39 50 51 0
-39 -50 -51 0
44 50 52 0
-44 -50 -52 0
5 44 51 0
-5 -44 -51 0
10 45 51 0
-10 -45 -51 0
15 46 51 0
-15 -46 -51 0
20 47 51 0
-20 -47 -51 0
25 48 51 0
-25 -48 -51 0
30 49 51 0
-30 -49 -51 0
35 50 51 0
-35 -50 -51 0
40 51 0
-40 -51 0
45 51 52 0
-45 -51 -52 0
1 43 52 0
-1 -43 -52 0
6 44 52 0
-6 -44 -52 0
11 45 52 0
-11 -45 -52 0
16 46 52 0
-16 -46 -52 0
21 47 52 0
-21 -47 -52 0
26 48 52 0
-26 -48 -52 0
31 49 52 0
-31 -49 -52 0
36 50 52 0
-36 -50 -52 0
41 51 52 0
-41 -51 -52 0
46 52 0
-46 -52 0
