certificates/rado_a5_c266_N52.drat
-45 -52 0
d -39 -45 -52 0
-10 -52 0
d -10 -4 -52 0
-52 0
46 0
-10 0
4 0
16 0
-45 0
-40 0
-47 0
39 0
51 0
11 0
9 0
34 0
41 0
21 0
14 0
6 0
-3 0
-28 0
-50 0
-15 0
-5 0
-17 0
-35 0
-27 0
-22 0
-20 0
-23 0
-30 0
-32 0
-25 0
-42 0
44 0
12 0
0
